Model 45 9 63 10
4 4 4 1 1 1 1 1 1 7 7 7 7 7 7 7 7 7 7 7 7 7 7 7 7 7 7 7 7 7 7 7 7 7 7 7 7 7 7 7 7 7 7 7 7 
1 9 0 3
1 10
3 10
5 10
1 10 0 3
1 10
3 10
5 10
1 11 0 3
1 10
3 10
5 10
1 12 0 3
1 10
3 10
5 10
1 13 0 3
1 10
3 10
5 10
1 14 0 3
1 10
3 10
5 10
1 15 0 3
1 10
3 10
5 10
1 16 0 3
1 10
3 10
5 10
1 17 0 3
1 10
3 10
5 10
1 18 0 3
1 10
3 10
5 10
1 19 0 3
1 10
3 10
5 10
1 20 0 3
1 10
3 10
5 10
1 21 0 3
1 10
3 10
5 10
1 22 0 3
1 10
3 10
5 10
1 23 0 3
1 10
3 10
5 10
1 24 0 3
1 10
3 10
5 10
1 25 0 3
1 10
3 10
5 10
1 26 0 3
1 10
3 10
5 10
1 27 0 3
1 10
3 10
5 10
1 28 0 3
1 10
3 10
5 10
1 29 0 3
1 10
3 10
5 10
1 30 0 3
1 10
3 10
5 10
1 31 0 3
1 10
3 10
5 10
1 32 0 3
1 10
3 10
5 10
1 33 0 3
1 10
3 10
5 10
1 34 0 3
1 10
3 10
5 10
1 35 0 3
1 10
3 10
5 10
1 36 0 3
1 10
3 10
5 10
1 37 0 3
1 10
3 10
5 10
1 38 0 3
1 10
3 10
5 10
1 39 0 3
1 10
3 10
5 10
1 40 0 3
1 10
3 10
5 10
1 41 0 3
1 10
3 10
5 10
1 42 0 3
1 10
3 10
5 10
1 43 0 3
1 10
3 10
5 10
1 44 0 3
1 10
3 10
5 10
9 0 9 10 11 12 13 14 15 16 -1 wsum hard 10 == 8
9 9 1 17 18 19 20 21 22 23 -1 wsum hard 10 == 8
9 10 17 2 24 25 26 27 28 29 -1 wsum hard 10 == 8
9 11 18 24 3 30 31 32 33 34 -1 wsum hard 10 == 2
9 12 19 25 30 4 35 36 37 38 -1 wsum hard 10 == 2
9 13 20 26 31 35 5 39 40 41 -1 wsum hard 10 == 2
9 14 21 27 32 36 39 6 42 43 -1 wsum hard 10 == 2
9 15 22 28 33 37 40 42 7 44 -1 wsum hard 10 == 2
9 16 23 29 34 38 41 43 44 8 -1 wsum hard 10 == 2
45 0 1 2 3 4 5 6 7 8 9 10 11 12 13 14 15 16 17 18 19 20 21 22 23 24 25 26 27 28 29 30 31 32 33 34 35 36 37 38 39 40 41 42 43 44 -1 wsum hard 10 == 18
1 9 0 1
0 10
1 12 0 1
0 10
3 11 18 24 -1 wsum hard > 0
3 12 19 25 -1 wsum hard > 0
3 13 20 26 -1 wsum hard > 0
3 14 21 27 -1 wsum hard > 0
3 15 22 28 -1 wsum hard > 0
3 16 23 29 -1 wsum hard > 0
10 0 0 9 10 11 12 13 14 15 16 -1 wsum hard 10 == 8
10 1 9 1 17 18 19 20 21 22 23 -1 wsum hard 10 == 8
10 2 10 17 2 24 25 26 27 28 29 -1 wsum hard 10 == 8
10 3 11 18 24 3 30 31 32 33 34 -1 wsum hard 10 == 2
10 4 12 19 25 30 4 35 36 37 38 -1 wsum hard 10 == 2
10 5 13 20 26 31 35 5 39 40 41 -1 wsum hard 10 == 2
10 6 14 21 27 32 36 39 6 42 43 -1 wsum hard 10 == 2
10 7 15 22 28 33 37 40 42 7 44 -1 wsum hard 10 == 2
10 8 16 23 29 34 38 41 43 44 8 -1 wsum hard 10 == 2
